# Solution for model GasLib-40
# Objective value = 1.2787911668114486e+01
loadshed[innode_1] 0
loadshed[innode_2] 0
loadshed[innode_3] 0
loadshed[innode_4] 0
loadshed[innode_5] 0
loadshed[innode_6] 0
loadshed[innode_7] 0
loadshed[innode_8] 0
loadshed[source_1] -2.0865284651053018e-01
loadshed[source_2] -3.8912489374096637e-02
loadshed[source_3] 3.2845526692813420e-01
loadshed[sink_1] 0
loadshed[sink_2] 0
loadshed[sink_3] 0
loadshed[sink_4] 0
loadshed[sink_5] 0
loadshed[sink_6] 0
loadshed[sink_7] 0
loadshed[sink_8] 0
loadshed[sink_9] 0
loadshed[sink_10] 0
loadshed[sink_11] 0
loadshed[sink_12] 0.781936000088529
loadshed[sink_13] 0
loadshed[sink_14] 0
loadshed[sink_15] 0
loadshed[sink_16] 0
loadshed[sink_17] 0
loadshed[sink_18] 0
loadshed[sink_19] 0
loadshed[sink_20] 0
loadshed[sink_21] 0
loadshed[sink_22] 0
loadshed[sink_23] 0
loadshed[sink_24] 0
loadshed[sink_25] 0
loadshed[sink_26] 0
loadshed[sink_27] 0
loadshed[sink_28] 0
loadshed[sink_29] 0
flow[source_1,sink_3] 1.9107626424175152e+02
flow[innode_1,sink_16] 1.6354166666666970e+01
flow[innode_6,sink_13] 8.3144732751454029e+00
flow[sink_13,sink_14] -8.0396933915212649e+00
flow[sink_14,sink_10] -2.4393860058187933e+01
flow[sink_25,sink_26] 2.1617042166522074e+02
flow[sink_26,sink_9] 1.2891770422578597e+02
flow[sink_9,sink_18] 1.1256353755911930e+02
flow[sink_26,sink_4] 7.0898550772768033e+01
flow[sink_4,sink_20] 0
flow[sink_18,sink_6] 9.6209370892452625e+01
flow[sink_25,innode_8] -1.5836793090841513e+02
flow[sink_6,sink_7] 4.7146870892452171e+01
flow[sink_6,sink_22] 3.2708333333333641e+01
flow[sink_7,sink_24] 3.6274588331885518e+01
flow[sink_22,sink_1] 1.6354166666666970e+01
flow[sink_24,sink_21] 1.9920421665218850e+01
flow[sink_21,sink_12] 3.5662549985521816e+00
flow[sink_7,sink_5] -5.4818841060994714e+00
flow[sink_5,sink_17] -2.1836050772766157e+01
flow[sink_17,sink_4] -5.4544384106101006e+01
flow[sink_17,sink_8] 1.6354166666668334e+01
flow[sink_3,sink_23] 16.3541666666697
flow[sink_8,sink_20] 0
flow[sink_25,sink_20] 1.6354166666668618e+01
flow[sink_25,sink_15] -9.8825297365286275e+01
flow[sink_15,sink_29] -64.0482161596719
flow[sink_29,sink_28] 1.6354166666667879e+01
flow[sink_29,sink_2] 6.7485414538947424e+01
flow[sink_2,sink_15] 5.1131247872280753e+01
flow[sink_29,innode_7] -1.6424196403195353e+02
flow[innode_4,sink_19] 8.9810526724855180e+01
flow[sink_19,innode_3] 3.5846393649268620e+01
flow[innode_4,innode_5] 1.6354166666679703e+01
flow[sink_27,innode_5] -1.6354166666679703e+01
flow[sink_27,sink_19] 0
flow[sink_10,sink_11] 3.2708333333333641e+01
flow[sink_10,innode_2] -3.7609966408919618e+01
flow[sink_10,innode_3] -3.5846393649268620e+01
flow[innode_6,sink_25] -8.3144732751454029e+00
flow[sink_11,innode_1] 1.6354166666666970e+01
flow[sink_19,innode_2] 3.7609966408919618e+01
flow[source_3,innode_4] 1.0616469339153488e+02
flow[source_2,innode_7] 1.6424196403195353e+02
flow[sink_3,innode_8] 1.5836793090841513e+02
pressure[innode_1] 7.5235253357286155e+01
pressure[innode_2] 7.7374796723849755e+01
pressure[innode_3] 7.7295418944277188e+01
pressure[innode_4] 81.01325
pressure[innode_5] 8.1002000741808786e+01
pressure[innode_6] 7.4264607922212122e+01
pressure[innode_7] 81.01325
pressure[innode_8] 8.0374555042418493e+01
pressure[source_1] 81.01325
pressure[source_2] 81.01325
pressure[source_3] 81.01325
pressure[sink_1] 4.2580756196742783e+01
pressure[sink_2] 7.4910939167118784e+01
pressure[sink_3] 8.0374555042418493e+01
pressure[sink_4] 5.0025626835288556e+01
pressure[sink_5] 46.3144923822377
pressure[sink_6] 4.4681833807130154e+01
pressure[sink_7] 4.4034619650907963e+01
pressure[sink_8] 4.7324035133886788e+01
pressure[sink_9] 5.1323794748830380e+01
pressure[sink_10] 75.3869546648897
pressure[sink_11] 7.5235253357286155e+01
pressure[sink_12] 1.01325
pressure[sink_13] 7.4218771620523810e+01
pressure[sink_14] 7.4233159336678426e+01
pressure[sink_15] 74.7440069119613
pressure[sink_16] 7.4213603522468475e+01
pressure[sink_17] 4.7941120329300411e+01
pressure[sink_18] 4.7250910462900485e+01
pressure[sink_19] 7.7374796723849755e+01
pressure[sink_20] 7.0365824594045890e+01
pressure[sink_21] 2.2823187103812130e+00
pressure[sink_22] 4.3644525339097790e+01
pressure[sink_23] 80.2098370307587
pressure[sink_24] 2.5029188720444440e+00
pressure[sink_25] 7.4264607922212122e+01
pressure[sink_26] 5.9039852074179159e+01
pressure[sink_27] 8.0866291377726043e+01
pressure[sink_28] 7.6325138605682938e+01
pressure[sink_29] 7.6620420879300113e+01
interdiction[source_1,sink_3] 0
interdiction[innode_1,sink_16] 0
interdiction[innode_6,sink_13] 0
interdiction[sink_13,sink_14] 0
interdiction[sink_14,sink_10] 0
interdiction[sink_25,sink_26] 0
interdiction[sink_26,sink_9] 0
interdiction[sink_9,sink_18] 0
interdiction[sink_26,sink_4] 0
interdiction[sink_4,sink_20] 1
interdiction[sink_18,sink_6] 0
interdiction[sink_25,innode_8] 0
interdiction[sink_6,sink_7] 0
interdiction[sink_6,sink_22] 0
interdiction[sink_7,sink_24] 0
interdiction[sink_22,sink_1] 0
interdiction[sink_24,sink_21] 0
interdiction[sink_21,sink_12] 0
interdiction[sink_7,sink_5] 0
interdiction[sink_5,sink_17] 0
interdiction[sink_17,sink_4] 0
interdiction[sink_17,sink_8] 0
interdiction[sink_3,sink_23] 0
interdiction[sink_8,sink_20] 1
interdiction[sink_25,sink_20] 0
interdiction[sink_25,sink_15] 0
interdiction[sink_15,sink_29] 0
interdiction[sink_29,sink_28] 0
interdiction[sink_29,sink_2] 0
interdiction[sink_2,sink_15] 0
interdiction[sink_29,innode_7] 0
interdiction[innode_4,sink_19] 0
interdiction[sink_19,innode_3] 0
interdiction[innode_4,innode_5] 0
interdiction[sink_27,innode_5] 0
interdiction[sink_27,sink_19] 1
interdiction[sink_10,sink_11] 0
interdiction[sink_10,innode_2] 0
interdiction[sink_10,innode_3] 0
interdiction[innode_6,sink_25] 0
interdiction[sink_11,innode_1] 0
interdiction[sink_19,innode_2] 0
interdiction[source_3,innode_4] 0
interdiction[source_2,innode_7] 0
interdiction[sink_3,innode_8] 0
WCcheckFlow[source_1,sink_3] 39
WCcheckFlow[innode_1,sink_16] 1
WCcheckFlow[innode_6,sink_13] 13
WCcheckFlow[sink_13,sink_14] 12
WCcheckFlow[sink_14,sink_10] 11
WCcheckFlow[sink_25,sink_26] 14
WCcheckFlow[sink_26,sink_9] 12
WCcheckFlow[sink_9,sink_18] 11
WCcheckFlow[sink_26,sink_4] 1
WCcheckFlow[sink_4,sink_20] 0
WCcheckFlow[sink_18,sink_6] 10
WCcheckFlow[sink_25,innode_8] -36
WCcheckFlow[sink_6,sink_7] 7
WCcheckFlow[sink_6,sink_22] 2
WCcheckFlow[sink_7,sink_24] 3
WCcheckFlow[sink_22,sink_1] 1
WCcheckFlow[sink_24,sink_21] 2
WCcheckFlow[sink_21,sink_12] 1
WCcheckFlow[sink_7,sink_5] 3
WCcheckFlow[sink_5,sink_17] 2
WCcheckFlow[sink_17,sink_4] 0
WCcheckFlow[sink_17,sink_8] 1
WCcheckFlow[sink_3,sink_23] 1
WCcheckFlow[sink_8,sink_20] 0
WCcheckFlow[sink_25,sink_20] 1
WCcheckFlow[sink_25,sink_15] 6
WCcheckFlow[sink_15,sink_29] 5
WCcheckFlow[sink_29,sink_28] 1
WCcheckFlow[sink_29,sink_2] 1
WCcheckFlow[sink_2,sink_15] 0
WCcheckFlow[sink_29,innode_7] 2
WCcheckFlow[innode_4,sink_19] -4
WCcheckFlow[sink_19,innode_3] -5
WCcheckFlow[innode_4,innode_5] 2
WCcheckFlow[sink_27,innode_5] -1
WCcheckFlow[sink_27,sink_19] 0
WCcheckFlow[sink_10,sink_11] 3
WCcheckFlow[sink_10,innode_2] 1
WCcheckFlow[sink_10,innode_3] 6
WCcheckFlow[innode_6,sink_25] -14
WCcheckFlow[sink_11,innode_1] 2
WCcheckFlow[sink_19,innode_2] 0
WCcheckFlow[source_3,innode_4] -1
WCcheckFlow[source_2,innode_7] -1
WCcheckFlow[sink_3,innode_8] 37
